56842
58318
58520
56863
56930
57119
57205
56403
57442
57474
107770
108338
108392
106796
107396
107414
107271
106372
106835
106856
150163
149907
152993
153169
153234
150287
148574
152841
152912
149572
